webassembly/ejemplos_dzn/13/folder13_json_87.dzn
TERM = { '.', 'in_10', 'in_1', 'in_6', 'in_9', 'in_16', 'in_0', 'in_12', 'in_3', 'in_11', 'in_14', 'in_17', 'in_2', 'in_8', 'in_19', 'in_15', 'in_13', 'local_0', 'local_1', 'in_4', 'in_18', 'in_7', 'in_5'};
null = '.';
s = 13;
n = 25;
ndeps = 8;
max_registers_sz = 4;
NR = 1;
registers = [|'local_1', 'in_19'|];
dependencies = [|'i32.store_1', 'i32.store16_4', |'i32.store16_4', 'i32.store_5', |'i32.store_5', 'i32.store16_6', |'i32.store16_6', 'i32.store8_7', |'i32.store8_7', 'i32.store8_8', |'i32.store8_8', 'i32.store16_9', |'i32.store16_9', 'i32.store_10', |'i32.store_10', 'i32.store_11'|];
GET_ENUM = { GET1, GET2, GET3, GET4, GET5};
SET_ENUM = { SET1, SET2, SET3, SET4, SET5};
TEE_ENUM = { TEE1, TEE2, TEE3, TEE4, TEE5};
N = 10;
OP = { 'i32.store_1', 'i32.store16_4', 'i32.store_5', 'i32.store16_6', 'i32.store8_7', 'i32.store8_8', 'i32.store16_9', 'i32.store_10', 'i32.store_11', 'local.get_0' };
in_ops = [2, 2, 2, 2, 2, 2, 2, 2, 2, 0 ];
out_ops = [0, 0, 0, 0, 0, 0, 0, 0, 0, 1 ];
in1 = ['in_1', 'local_0', 'in_5', 'in_7', 'in_9', 'in_11', 'in_13', 'in_15', 'in_17', '.' ];
in2 = ['in_2', 'in_4', 'in_6', 'in_8', 'in_10', 'in_12', 'in_14', 'in_16', 'in_18', '.' ];
in3 = ['.', '.', '.', '.', '.', '.', '.', '.', '.', '.' ];
out1 = ['.', '.', '.', '.', '.', '.', '.', '.', '.', 'local_0' ];
out2 = ['.', '.', '.', '.', '.', '.', '.', '.', '.', '.' ];
out3 = ['.', '.', '.', '.', '.', '.', '.', '.', '.', '.' ];
comm = [false, false, false, false, false, false, false, false, false, false ];
gas = [1, 1, 1, 1, 1, 1, 1, 1, 1, 1 ];
sz = [1, 1, 1, 1, 1, 1, 1, 1, 1, 1 ];
stor = [true, true, true, true, true, true, true, true, true, false ];
lb = [ 1, 1, 1, 1, 1, 1, 1, 1, 1, 1 ];
ub = [ 13, 13, 13, 13, 13, 13, 13, 13, 13, 13 ];
startstack = [ 'in_0', 'in_1', 'in_2', 'in_3', 'in_4', 'in_5', 'in_6', 'in_7', 'in_8', 'in_9', 'in_10', 'in_11', 'in_12', 'in_13', 'in_14', 'in_15', 'in_16', 'in_17', 'in_18', 'in_19', null, null, null, null, null ];
endstack = [ null, null, null, null, null, null, null, null, null, null, null, null, null, null, null, null, null, null, null, null, null, null, null, null, null ];
